TSPLIB/results12.tsp
NAME : results12
COMMENT : a comment by the user
TYPE : TSP
DIMENSION : 30
EDGE_WEIGHT_TYPE : EXPLICIT
EDGE_WEIGHT_FORMAT: FULL_MATRIX
EDGE_WEIGHT_SECTION
0 0 91900 91900 91900 139800 16000 89101 89101 138200 89101 103079 119635 91900 91900 91900 138200 145883 156654 139800 0 9999999999 9999999999 9999999999 9999999999 9999999999 9999999999 9999999999 9999999999 9999999999
0 0 0 8000 8000 87900 91901 10772172 10772172 86301 10772172 79698 100400 0 0 8000 86301 100924 117088 87900 0 9999999999 9999999999 9999999999 9999999999 9999999999 9999999999 9999999999 9999999999 9999999999
91900 0 0 0 8000 87900 91901 10772172 10772172 86301 10772172 79698 100400 0 0 8000 86301 100924 117088 87900 9999999999 0 9999999999 9999999999 9999999999 9999999999 9999999999 9999999999 9999999999 9999999999
91900 8000 0 0 0 87900 91900 10704928 10704928 86300 10704928 79499 100600 8000 8000 0 86300 100795 117244 87900 9999999999 0 9999999999 9999999999 9999999999 9999999999 9999999999 9999999999 9999999999 9999999999
91900 8000 8000 0 0 0 91900 10704928 10704928 86300 10704928 79499 100600 8000 8000 0 86300 100795 117244 87900 9999999999 9999999999 0 9999999999 9999999999 9999999999 9999999999 9999999999 9999999999 9999999999
139800 87900 87900 87900 0 0 139800 90700 90700 6932121 90700 104209 117244 87900 87900 87900 6932121 79432 100600 0 9999999999 9999999999 0 9999999999 9999999999 9999999999 9999999999 9999999999 9999999999 9999999999
16000 91901 91901 91900 91900 139800 0 0 89100 138200 89100 102828 119939 91901 91901 91900 138200 145734 156861 139800 9999999999 9999999999 9999999999 0 9999999999 9999999999 9999999999 9999999999 9999999999 9999999999
89101 10772172 10772172 10704928 10704928 90700 0 0 0 89100 0 79200 100864 10772172 10772172 10704928 89100 102828 119165 90700 9999999999 9999999999 9999999999 0 9999999999 9999999999 9999999999 9999999999 9999999999 9999999999
89101 10772172 10772172 10704928 10704928 90700 89100 0 0 0 0 79200 100864 10772172 10772172 10704928 89100 102828 119165 90700 9999999999 9999999999 9999999999 9999999999 0 9999999999 9999999999 9999999999 9999999999 9999999999
138200 86301 86301 86300 86300 6932121 138200 89100 0 0 89100 102828 116422 86301 86301 86300 0 79200 100821 6932121 9999999999 9999999999 9999999999 9999999999 0 9999999999 9999999999 9999999999 9999999999 9999999999
89101 10772172 10772172 10704928 10704928 90700 89100 0 0 89100 0 0 100864 10772172 10772172 10704928 89100 102828 119165 90700 9999999999 9999999999 9999999999 9999999999 9999999999 0 9999999999 9999999999 9999999999 9999999999
103079 79698 79698 79499 79499 104209 102828 79200 79200 102828 0 0 140039 79698 79698 79499 102828 89100 152118 104209 9999999999 9999999999 9999999999 9999999999 9999999999 0 9999999999 9999999999 9999999999 9999999999
119635 100400 100400 100600 100600 117244 119939 100864 100864 116422 100864 140039 0 0 100400 100600 116422 150198 87900 117244 9999999999 9999999999 9999999999 9999999999 9999999999 9999999999 0 9999999999 9999999999 9999999999
91900 0 0 8000 8000 87900 91901 10772172 10772172 86301 10772172 79698 0 0 0 8000 86301 100924 117088 87900 9999999999 9999999999 9999999999 9999999999 9999999999 9999999999 0 9999999999 9999999999 9999999999
91900 0 0 8000 8000 87900 91901 10772172 10772172 86301 10772172 79698 100400 0 0 0 86301 100924 117088 87900 9999999999 9999999999 9999999999 9999999999 9999999999 9999999999 9999999999 0 9999999999 9999999999
91900 8000 8000 0 0 87900 91900 10704928 10704928 86300 10704928 79499 100600 8000 0 0 86300 100795 117244 87900 9999999999 9999999999 9999999999 9999999999 9999999999 9999999999 9999999999 0 9999999999 9999999999
138200 86301 86301 86300 86300 6932121 138200 89100 89100 0 89100 102828 116422 86301 86301 86300 0 0 100821 6932121 9999999999 9999999999 9999999999 9999999999 9999999999 9999999999 9999999999 9999999999 0 9999999999
145883 100924 100924 100795 100795 79432 145734 102828 102828 79200 102828 89100 150198 100924 100924 100795 0 0 140012 79432 9999999999 9999999999 9999999999 9999999999 9999999999 9999999999 9999999999 9999999999 0 9999999999
156654 117088 117088 117244 117244 100600 156861 119165 119165 100821 119165 152118 87900 117088 117088 117244 100821 140012 0 0 9999999999 9999999999 9999999999 9999999999 9999999999 9999999999 9999999999 9999999999 9999999999 0
139800 87900 87900 87900 87900 0 139800 90700 90700 6932121 90700 104209 117244 87900 87900 87900 6932121 79432 0 0 9999999999 9999999999 9999999999 9999999999 9999999999 9999999999 9999999999 9999999999 9999999999 0
0 0 9999999999 9999999999 9999999999 9999999999 9999999999 9999999999 9999999999 9999999999 9999999999 9999999999 9999999999 9999999999 9999999999 9999999999 9999999999 9999999999 9999999999 9999999999 0 9999999999 9999999999 9999999999 9999999999 9999999999 9999999999 9999999999 9999999999 9999999999
9999999999 9999999999 0 0 9999999999 9999999999 9999999999 9999999999 9999999999 9999999999 9999999999 9999999999 9999999999 9999999999 9999999999 9999999999 9999999999 9999999999 9999999999 9999999999 9999999999 0 9999999999 9999999999 9999999999 9999999999 9999999999 9999999999 9999999999 9999999999
9999999999 9999999999 9999999999 9999999999 0 0 9999999999 9999999999 9999999999 9999999999 9999999999 9999999999 9999999999 9999999999 9999999999 9999999999 9999999999 9999999999 9999999999 9999999999 9999999999 9999999999 0 9999999999 9999999999 9999999999 9999999999 9999999999 9999999999 9999999999
9999999999 9999999999 9999999999 9999999999 9999999999 9999999999 0 0 9999999999 9999999999 9999999999 9999999999 9999999999 9999999999 9999999999 9999999999 9999999999 9999999999 9999999999 9999999999 9999999999 9999999999 9999999999 0 9999999999 9999999999 9999999999 9999999999 9999999999 9999999999
9999999999 9999999999 9999999999 9999999999 9999999999 9999999999 9999999999 9999999999 0 0 9999999999 9999999999 9999999999 9999999999 9999999999 9999999999 9999999999 9999999999 9999999999 9999999999 9999999999 9999999999 9999999999 9999999999 0 9999999999 9999999999 9999999999 9999999999 9999999999
9999999999 9999999999 9999999999 9999999999 9999999999 9999999999 9999999999 9999999999 9999999999 9999999999 0 0 9999999999 9999999999 9999999999 9999999999 9999999999 9999999999 9999999999 9999999999 9999999999 9999999999 9999999999 9999999999 9999999999 0 9999999999 9999999999 9999999999 9999999999
9999999999 9999999999 9999999999 9999999999 9999999999 9999999999 9999999999 9999999999 9999999999 9999999999 9999999999 9999999999 0 0 9999999999 9999999999 9999999999 9999999999 9999999999 9999999999 9999999999 9999999999 9999999999 9999999999 9999999999 9999999999 0 9999999999 9999999999 9999999999
9999999999 9999999999 9999999999 9999999999 9999999999 9999999999 9999999999 9999999999 9999999999 9999999999 9999999999 9999999999 9999999999 9999999999 0 0 9999999999 9999999999 9999999999 9999999999 9999999999 9999999999 9999999999 9999999999 9999999999 9999999999 9999999999 0 9999999999 9999999999
9999999999 9999999999 9999999999 9999999999 9999999999 9999999999 9999999999 9999999999 9999999999 9999999999 9999999999 9999999999 9999999999 9999999999 9999999999 9999999999 0 0 9999999999 9999999999 9999999999 9999999999 9999999999 9999999999 9999999999 9999999999 9999999999 9999999999 0 9999999999
9999999999 9999999999 9999999999 9999999999 9999999999 9999999999 9999999999 9999999999 9999999999 9999999999 9999999999 9999999999 9999999999 9999999999 9999999999 9999999999 9999999999 9999999999 0 0 9999999999 9999999999 9999999999 9999999999 9999999999 9999999999 9999999999 9999999999 9999999999 0
EOF
